(set-logic QF_S)
(declare-fun var0 () String)
(declare-fun var1 () String)
(declare-fun var2 () String)
(declare-fun var3 () Int)
(declare-fun var4 () String)
(declare-fun var5 () Int)
(declare-fun var6 () Int)
(declare-fun var7 () Int)
(assert (>= (str.len var0) (str.len var1)))
(assert (< (str.indexof var2 ";u[F" var3) (str.len "2x{J=?%ae")))
(assert (str.suffixof (str.at var4 var5) (str.substr var2 var6 var7)))
(assert (<= (str.len var1) (str.len var2)))
(check-sat)